column=9;
row=9;
Board=[|0,9,0,0,0,0,3,0,0|0,0,0,0,3,0,7,0,8|3,0,0,9,0,0,0,0,5|0,2,4,0,5,0,6,0,0|0,1,0,0,6,0,9,8,0|0,7,0,1,9,3,0,4,2|0,0,0,0,0,0,8,6,3|4,3,1,0,8,5,2,7,0|0,0,9,0,7,0,0,0,0|];
horizontal=[|1,0,0,2,0,1,2,0|0,0,1,0,1,0,0,2|1,0,0,0,0,0,2,0|2,0,1,2,1,0,2,0|0,1,0,0,0,0,0,0|1,0,2,0,0,1,2,0|0,0,2,2,1,0,0,2|0,0,0,0,2,0,0,1|0,1,2,0,2,0,0,2|];
vertical=[|0,2,0,0,2,1,0,0,1|0,1,0,0,2,1,0,0,0|1,0,0,2,0,0,0,1,0|0,0,2,0,0,0,0,1,0|0,1,0,0,0,0,2,0,0|0,0,0,0,2,0,0,0,0|0,0,0,0,1,0,0,1,0|0,0,0,0,0,2,0,2,2|];
